RT is False
Default write of storage_offers_DA.csv just to have a file (but constraint should be inactive)
Reading model...
...model read.
creating competitive generators file...
...competitive generators recorded.
Loading data...
.. day-ahead data with real-time VRE data read.
Compiling instance...
...instance created.
Creating Offer Mitigation (model will solve as dispatch if TRUE)...
NOTE: storage offers will not be mitigated
...storage offer mitigation file created
Converting model to MPEC...
...converted
NOTE: initial MIP solve with only storage competitive to get feasible solution
Solving...

Welcome to IBM(R) ILOG(R) CPLEX(R) Interactive Optimizer 12.9.0.0
  with Simplex, Mixed Integer & Barrier Optimizers
5725-A06 5725-A29 5724-Y48 5724-Y49 5724-Y54 5724-Y55 5655-Y21
Copyright IBM Corp. 1988, 2019.  All Rights Reserved.

Type 'help' for a list of available commands.
Type 'help' followed by a command name for more
information on commands.

CPLEX> Logfile 'cplex.log' closed.
Logfile 'C:\Users\llavin\Desktop\test826\logs\tmpx348_x16.cplex.log' open.
CPLEX> New value for parallel optimization mode: -1
CPLEX> New value for mixed integer optimality gap tolerance: 0.02
CPLEX> New value for integrality tolerance: 1e-12
CPLEX> New value for deterministic time limit in ticks: 65000
CPLEX> Problem 'C:\Users\llavin\Desktop\test826\logs\tmp6mv68nl1.pyomo.lp' read.
Read time = 0.20 sec. (13.64 ticks)
CPLEX> Problem name         : C:\Users\llavin\Desktop\test826\logs\tmp6mv68nl1.pyomo.lp
Objective sense      : Maximize
Variables            :   53815  [Nneg: 1,  Box: 22002,  Free: 4464,
                                 Binary: 27348]
Objective nonzeros   :    8980
Linear constraints   :  123235  [Less: 41356,  Greater: 59114,  Equal: 22765]
  Nonzeros           :  292605
  RHS nonzeros       :   67515

Variables            : Min LB: -5000.000        Max UB: 1000000.       
Objective nonzeros   : Min   : 0.3666667        Max   : 834.3917       
Linear constraints   :
  Nonzeros           : Min   : 0.3666667        Max   : 1000000.       
  RHS nonzeros       : Min   : 0.001000000      Max   : 1000000.       
CPLEX> CPXPARAM_Parallel                                -1
CPXPARAM_DetTimeLimit                            65000
CPXPARAM_MIP_Tolerances_MIPGap                   0.02
CPXPARAM_MIP_Tolerances_Integrality              9.9999999999999998e-13
Tried aggregator 3 times.
MIP Presolve eliminated 88637 rows and 18917 columns.
MIP Presolve added 3402 rows and 0 columns.
MIP Presolve modified 24936 coefficients.
Aggregator did 13020 substitutions.
Reduced MIP has 24980 rows, 21322 columns, and 71452 nonzeros.
Reduced MIP has 8422 binaries, 0 generals, 0 SOSs, and 0 indicators.
Presolve time = 0.27 sec. (172.80 ticks)
Probing fixed 380 vars, tightened 4028 bounds.
Probing time = 0.06 sec. (18.99 ticks)
Tried aggregator 2 times.
MIP Presolve eliminated 860 rows and 761 columns.
MIP Presolve modified 3039 coefficients.
Aggregator did 32 substitutions.
Reduced MIP has 24088 rows, 20529 columns, and 68870 nonzeros.
Reduced MIP has 8042 binaries, 0 generals, 0 SOSs, and 0 indicators.
Presolve time = 0.11 sec. (89.45 ticks)
Probing fixed 0 vars, tightened 400 bounds.
Probing time = 0.13 sec. (23.30 ticks)
Clique table members: 45112.
MIP emphasis: balance optimality and feasibility.
MIP search method: dynamic search.
Parallel mode: opportunistic, using up to 32 threads.
Root relaxation solution time = 0.34 sec. (609.64 ticks)

        Nodes                                         Cuts/
   Node  Left     Objective  IInf  Best Integer    Best Bound    ItCnt     Gap

      0     0     2965.5364    81                   2965.5364     5005         
*     0+    0                         2955.1066     2965.5364             0.35%

Root node processing (before b&c):
  Real time             =    1.58 sec. (1321.04 ticks)
Parallel b&c, 32 threads:
  Real time             =    0.00 sec. (0.00 ticks)
  Sync time (average)   =    0.00 sec.
  Wait time (average)   =    0.00 sec.
                          ------------
Total (root+branch&cut) =    1.58 sec. (1321.04 ticks)

Solution pool: 1 solution saved.

MIP - Integer optimal, tolerance (0.02/1e-06):  Objective =  2.9551066133e+03
Current MIP best bound =  2.9655364291e+03 (gap = 10.4298, 0.35%)
Solution time =    1.59 sec.  Iterations = 5005  Nodes = 0 (1)
Deterministic time = 1321.19 ticks  (828.85 ticks/sec)

CPLEX> Incumbent solution written to file 'C:\Users\llavin\Desktop\test826\logs\tmpbbpcbehk.cplex.sol'.
CPLEX> NOTE: no warmstart specified for MIP iteration, default behavior is true
NOTE: resolving with all competitive generators using storage-only solution to warmstart
Solving...

Welcome to IBM(R) ILOG(R) CPLEX(R) Interactive Optimizer 12.9.0.0
  with Simplex, Mixed Integer & Barrier Optimizers
5725-A06 5725-A29 5724-Y48 5724-Y49 5724-Y54 5724-Y55 5655-Y21
Copyright IBM Corp. 1988, 2019.  All Rights Reserved.

Type 'help' for a list of available commands.
Type 'help' followed by a command name for more
information on commands.

CPLEX> Logfile 'cplex.log' closed.
Logfile 'C:\Users\llavin\Desktop\test826\logs\tmpoxpgnrur.cplex.log' open.
CPLEX> New value for parallel optimization mode: -1
CPLEX> New value for mixed integer optimality gap tolerance: 0.02
CPLEX> New value for integrality tolerance: 1e-12
CPLEX> New value for deterministic time limit in ticks: 65000
CPLEX> Problem 'C:\Users\llavin\Desktop\test826\logs\tmps52povyp.pyomo.lp' read.
Read time = 0.22 sec. (13.66 ticks)
CPLEX> MIP start file 'C:\Users\llavin\Desktop\test826\logs\tmppoetb09g.cplex.mst' read.
CPLEX> Problem name         : C:\Users\llavin\Desktop\test826\logs\tmps52povyp.pyomo.lp
Objective sense      : Maximize
Variables            :   54535  [Nneg: 1,  Box: 22722,  Free: 4464,
                                 Binary: 27348]
Objective nonzeros   :    9676
Linear constraints   :  123235  [Less: 41356,  Greater: 59114,  Equal: 22765]
  Nonzeros           :  292605
  RHS nonzeros       :   67515

Variables            : Min LB: -5000.000        Max UB: 1000000.       
Objective nonzeros   : Min   : 0.3666667        Max   : 787.3167       
Linear constraints   :
  Nonzeros           : Min   : 0.3666667        Max   : 1000000.       
  RHS nonzeros       : Min   : 0.001000000      Max   : 1000000.       
CPLEX> CPXPARAM_Parallel                                -1
CPXPARAM_DetTimeLimit                            65000
CPXPARAM_MIP_Tolerances_MIPGap                   0.02
CPXPARAM_MIP_Tolerances_Integrality              9.9999999999999998e-13
Warning:  No solution found from 1 MIP starts.
Retaining values of one MIP start for possible repair.
Tried aggregator 3 times.
MIP Presolve eliminated 88637 rows and 19637 columns.
MIP Presolve added 3402 rows and 0 columns.
MIP Presolve modified 24936 coefficients.
Aggregator did 13020 substitutions.
Reduced MIP has 24980 rows, 21322 columns, and 71452 nonzeros.
Reduced MIP has 8422 binaries, 0 generals, 0 SOSs, and 0 indicators.
Presolve time = 0.25 sec. (173.16 ticks)
Probing fixed 380 vars, tightened 4028 bounds.
Probing time = 0.06 sec. (18.99 ticks)
Tried aggregator 2 times.
MIP Presolve eliminated 860 rows and 761 columns.
MIP Presolve modified 3039 coefficients.
Aggregator did 32 substitutions.
Reduced MIP has 24088 rows, 20529 columns, and 68870 nonzeros.
Reduced MIP has 8042 binaries, 0 generals, 0 SOSs, and 0 indicators.
Presolve time = 0.13 sec. (89.45 ticks)
Probing fixed 0 vars, tightened 400 bounds.
Probing time = 0.11 sec. (23.30 ticks)
Clique table members: 45112.
MIP emphasis: balance optimality and feasibility.
MIP search method: dynamic search.
Parallel mode: opportunistic, using up to 32 threads.
Root relaxation solution time = 0.41 sec. (642.56 ticks)

        Nodes                                         Cuts/
   Node  Left     Objective  IInf  Best Integer    Best Bound    ItCnt     Gap

      0     0   147624.2571   314                 147624.2571     5899         
      0     0   142777.2987   221                   Cuts: 202     6178         
      0     0   141802.6943   203                    Cuts: 75     6258         
      0     0   141740.8007   208                    Cuts: 12     6281         
      0     0   141740.8007   208                     Cuts: 4     6285         
      0     0   141693.4456   182                     Cuts: 4     6305         
      0     0   141693.4456   185                    Cuts: 12     6312         
Repair heuristic found nothing.
      0    34   114169.8408   153                     Cuts: 5     6947         
Elapsed time = 7.23 sec. (4300.92 ticks, tree = 0.02 MB, solutions = 0)
    538    64   110138.6415   144                 125598.7673     7459         
   1080   176    infeasible                       125598.7673    14995         
   1501   487   107798.9936   127                 125598.7673    39965         
   1982  1000    16497.2097   101                 125598.7673    56121         
   2555  1121   -10941.8679    21                 125598.7673    58631         
   3289  1528    infeasible                       125598.7673    67784         
   3910  1743    53110.1355    75                 125272.7895    71751         
   4434  2048     2030.3685    42                 125272.7895    80164         
   4947  2327    11138.1044    15                 125272.7895    90288         
   7170  4045    26571.2050    42                 114663.9099   157599         
Elapsed time = 25.06 sec. (7403.68 ticks, tree = 40.23 MB, solutions = 0)
   9321  5122  -180675.7891    50                 112651.5748   201099         
  11497  6351     7486.2862    86                 111461.4601   259841         
  13549  8043  -145898.1869    82                 109667.0470   352620         
  15904  8915   -97690.4479    70                 104265.5952   422063         
  18077  9576    infeasible                        96997.5420   470206         
  20125 10917     8307.2526    34                  85948.5831   559494         
  22095 12492    infeasible                        77102.5717   668553         
  24052 13180   -50967.4414    82                  62044.2997   730375         
* 24389+ 6447                        12703.7811    61544.0666           384.45%
  26186  6572        cutoff          12703.7811    61544.0666   805076  384.45%
Elapsed time = 68.84 sec. (16152.98 ticks, tree = 58.27 MB, solutions = 1)
* 26496+ 4790                        13135.3466    25227.2477            92.06%

Cover cuts applied:  11
Implied bound cuts applied:  12
Flow cuts applied:  70
Mixed integer rounding cuts applied:  5
Gomory fractional cuts applied:  2

Root node processing (before b&c):
  Real time             =    5.48 sec. (4274.57 ticks)
Parallel b&c, 32 threads:
  Real time             =   68.39 sec. (16125.06 ticks)
  Sync time (average)   =    0.96 sec.
  Wait time (average)   =    0.00 sec.
                          ------------
Total (root+branch&cut) =   73.88 sec. (20399.63 ticks)

Solution pool: 2 solutions saved.

MIP - Integer optimal, tolerance (0.02/1e-06):  Objective =  1.3135346631e+04
Current MIP best bound =  1.3326784898e+04 (gap = 191.438, 1.46%)
Solution time =   73.89 sec.  Iterations = 869484  Nodes = 26496 (4791)
Deterministic time = 20399.79 ticks  (276.08 ticks/sec)

CPLEX> Incumbent solution written to file 'C:\Users\llavin\Desktop\test826\logs\tmpiaojiczt.cplex.sol'.
CPLEX> Exporting results... 
